1001.15,56.56,67.79
1162.16,48.73,58.4
1100.54,51.45,61.67
979.92,57.79,69.26
1011.08,56.01,67.12
1053.98,53.73,64.39
1105.46,51.22,61.39
1096.39,51.65,61.9
1054.3,53.71,64.37
1047.32,54.07,64.8
1193.01,47.47,56.89
1127.45,50.23,60.19
952.31,59.46,71.26
1061.42,53.35,63.94
1019.35,55.55,66.58
998.3,56.72,67.98
1044.8,54.2,64.96
1032.74,54.83,65.71
991.44,57.11,68.45
1002.29,56.5,67.71
